&CONTROL
  calculation = 'cp',
  restart_mode = 'from_scratch', #to restart, set to 'restart'
  ndr = 56,
  ndw = 57,
  nstep  = 1500,
  iprint = 10,
  isave  = 100,
  tprnfor = .TRUE.,
  tstress = .TRUE.,
  tefield = .TRUE.,
  dt    = 8, #can also be 4, check what works for your system
  etot_conv_thr = 1.d-9,
  ekin_conv_thr = 1.d-5,
  prefix = '$jobname'
  pseudo_dir = './'
/
&SYSTEM
  ibrav = 0,
  nbnd=,
  nat  =,
  ntyp =,
  ecutwfc = ,
  ecutrho = ,
  nr1b= 30, nr2b = 30, nr3b = 30,
  nspin=1,
/
&ELECTRONS
  emass = 300.d0,
  emass_cutoff = 2.5d0,
  orthogonalization = 'ortho',
  ortho_max = 100
  electron_dynamics = 'damp',
  electron_damping = 0.05
  electron_velocities = 'zero'
  epol = 3
  efield = 0.0
/
&IONS
  ion_dynamics = 'none',
  ion_temperature = 'not_controlled',
/

ATOMIC_SPECIES

ATOMIC_POSITIONS (angstroms)

CELL_PARAMETERS (angstroms)
