&CONTROL
  calculation = 'cp',
  restart_mode = 'reset_counters', #to restart, set to "restart"
  ndr = 58,
  ndw = 59,
  nstep  = 10000,
  iprint = 10,
  isave  = 100,
  tstress = .TRUE.,
  tprnfor = .TRUE.,
  prefix = '$jobname',
  tefield = .TRUE.,
  dt = 8, #can start lower and increase if encountering errors
  pseudo_dir = './',
/

&SYSTEM
  ibrav = 0,
  nbnd=,
  nat  =,
  ntyp =,
  ecutwfc = 70,
  ecutrho = 560,
  nr1b= 30, nr2b = 30, nr3b = 30,
  nspin=1,
/

&ELECTRONS
  emass = 300.d0,
  emass_cutoff = 2.5d0,
  orthogonalization = 'ortho',
  ortho_max = 100
  electron_dynamics = 'damp',
  electron_damping = 0.05
  electron_velocities = 'zero'
  epol = 3
  efield = 0.001
/

&IONS
  ion_dynamics = 'verlet',
  ion_temperature = 'not_controlled',
/

ATOMIC_SPECIES

ATOMIC_POSITIONS (angstroms)

CELL_PARAMETERS (angstroms)
